n = 12;

personas = ["ana", "beto", "carla", "elena", "diego", "fabián", "gloria", "hector", "ines", "juan", "karla", "leo"];

% Personas que deben estar separadas (> 1 posición)
num_separate = 4;
separate = array2d(1..num_separate, 1..2, [
    1, 2,   % ana y beto
    3, 5,   % carla y diego
    6, 7,   % fabián y gloria
    10, 11  % juan y karla
]);

% Personas que deben estar juntas (exactamente a 1 posición de distancia)
num_next = 3;
next = array2d(1..num_next, 1..2, [
    4, 6,    % elena y fabián
    11, 12,  % karla y leo
    8, 9     % hector e ines
]);

% Distancia máxima entre dos personas
num_distance = 3;
distance = array2d(1..num_distance, 1..3, [
    2, 4, 3,   % beto y elena máximo 3 posiciones
    5, 9, 2,   % diego e ines máximo 2
    1, 8, 4    % ana y hector máximo 4
]);